HUN,8,6,482
1,26,5,27,2,21,3,29,4,25,0,30
0,23,2,23,1,22,5,22,4,29,3,26
0,30,3,23,2,22,5,25,4,24,1,26
4,24,2,24,5,30,3,27,0,28,1,23
2,21,4,24,3,25,0,21,1,24,5,21
5,24,1,22,0,22,4,29,3,21,2,22
1,28,4,28,2,26,0,30,3,26,5,21
5,30,3,26,1,27,2,21,0,28,4,24
